Version identifier: 22.1.0.0 | 2022-03-09 | 1a383f8ce
CPXPARAM_Read_DataCheck                          1
1 of 1 MIP starts provided solutions.
MIP start 'm1' defined initial solution with objective 66.0000.
Tried aggregator 3 times.
MIP Presolve eliminated 113830 rows and 9131 columns.
MIP Presolve modified 1261 coefficients.
Aggregator did 106230 substitutions.
Reduced MIP has 10640 rows, 109039 columns, and 228935 nonzeros.
Reduced MIP has 108999 binaries, 40 generals, 0 SOSs, and 0 indicators.
Presolve time = 1.41 sec. (1397.55 ticks)
Tried aggregator 1 time.
Detecting symmetries...
Reduced MIP has 10640 rows, 109039 columns, and 228935 nonzeros.
Reduced MIP has 108999 binaries, 40 generals, 0 SOSs, and 0 indicators.
Presolve time = 0.25 sec. (167.86 ticks)
Probing fixed 60 vars, tightened 0 bounds.
Probing changed sense of 16 constraints.
Probing time = 0.21 sec. (26.31 ticks)
Clique table members: 220769.
MIP emphasis: balance optimality and feasibility.
MIP search method: dynamic search.
Parallel mode: deterministic, using up to 8 threads.
Root relaxation solution time = 1.03 sec. (756.21 ticks)

        Nodes                                         Cuts/
   Node  Left     Objective  IInf  Best Integer    Best Bound    ItCnt     Gap

*     0+    0                           66.0000        0.0000           100.00%
      0     0       40.4100  8054       66.0000       40.4100       25   38.77%
      0     0        cutoff             66.0000                     51    0.00%
Elapsed time = 13.49 sec. (13012.35 ticks, tree = 0.01 MB, solutions = 1)

Zero-half cuts applied:  11
Gomory fractional cuts applied:  26

Root node processing (before b&c):
  Real time             =   13.50 sec. (13020.00 ticks)
Parallel b&c, 8 threads:
  Real time             =    0.00 sec. (0.00 ticks)
  Sync time (average)   =    0.00 sec.
  Wait time (average)   =    0.00 sec.
                          ------------
Total (root+branch&cut) =   13.50 sec. (13020.00 ticks)
